
Gurobi 11.0.3 (linux64) logging started Sun Jun  1 03:55:30 2025

Set parameter LogFile to value "/home/yihong/Coding/SFLA+ED/PD_results_bigM100000_thread4/case24_ieee_rts_theta0.001_epsilon0.06_gurobi_seed40000_num_gen19_N_WDR80_load_scaling_factor2.0_FICA_T1.txt"
Set parameter TimeLimit to value 3600
Gurobi Optimizer version 11.0.3 build v11.0.3rc0 (linux64 - "Ubuntu 20.04.6 LTS")

CPU model: AMD EPYC 7532 32-Core Processor, instruction set [SSE2|AVX|AVX2]
Thread count: 64 physical cores, 128 logical processors, using up to 4 threads

Optimize a model with 8780 rows, 119 columns and 452200 nonzeros
Model fingerprint: 0xf35967f8
Model has 19 quadratic objective terms
Coefficient statistics:
  Matrix range     [1e-05, 1e+02]
  Objective range  [2e+01, 6e+01]
  QObjective range [6e-03, 2e-02]
  Bounds range     [0e+00, 0e+00]
  RHS range        [1e-04, 2e+03]
Presolve removed 5693 rows and 0 columns
Presolve time: 0.06s
Presolved: 3087 rows, 119 columns, 111759 nonzeros
Presolved model has 19 quadratic objective terms
Ordering time: 0.03s

Barrier statistics:
 Dense cols : 39
 AA' NZ     : 4.514e+05
 Factor NZ  : 4.718e+05 (roughly 5 MB of memory)
 Factor Ops : 7.518e+07 (less than 1 second per iteration)
 Threads    : 4

                  Objective                Residual
Iter       Primal          Dual         Primal    Dual     Compl     Time
   0   1.22738648e+07 -6.89774686e+06  1.85e+04 9.97e+02  9.99e+05     0s
   1   6.22527712e+06 -1.61812270e+07  1.13e+04 6.09e+02  6.20e+05     0s
   2   4.69226164e+06 -8.83669619e+07  9.06e+03 4.88e+02  6.11e+05     0s
   3   1.11372494e+06 -1.44862317e+08  2.60e+03 1.40e+02  2.50e+05     0s
   4   3.67754777e+05 -1.21117615e+08  8.23e+02 4.43e+01  9.79e+04     0s
   5   2.16532664e+05 -1.09815700e+08  4.21e+02 2.27e+01  6.75e+04     0s
   6   1.07646423e+05 -7.50186755e+07  1.22e+02 6.59e+00  3.27e+04     0s
   7   7.83668052e+04 -3.86232533e+07  2.96e+01 1.60e+00  1.41e+04     0s
   8   7.19690743e+04 -2.53215234e+07  1.03e+01 5.56e-01  8.65e+03     0s
   9   7.06632462e+04 -1.70841318e+07  6.31e+00 3.43e-01  5.97e+03     0s
  10   7.03108154e+04 -1.12512846e+07  5.26e+00 2.86e-01  5.22e+03     0s
  11   7.02869523e+04  8.97792078e+06  5.19e+00 2.82e-01  5.16e+03     0s
  12   7.02810839e+04  5.17494095e+07  5.17e+00 2.81e-01  5.13e+03     0s
  13   7.02785480e+04  2.98289577e+08  5.16e+00 2.80e-01  5.15e+03     0s
  14   7.02782927e+04  3.10064982e+09  5.16e+00 2.47e-01  5.30e+03     0s
  15   7.02790004e+04  7.69378577e+10  5.16e+00 2.47e-01  6.62e+03     0s
  16   7.02847739e+04  8.69834798e+10  5.15e+00 2.75e-05  6.87e+03     0s
  17   7.02479770e+04  8.85178595e+10  5.15e+00 9.66e-06  6.93e+03     0s
  18   7.02657525e+04  9.02386736e+10  5.15e+00 3.66e-05  7.01e+03     0s
  19   7.02090000e+04  9.55858710e+10  5.15e+00 1.24e-04  7.43e+03     0s
  20   7.01828098e+04  1.03336470e+11  5.15e+00 9.60e-05  8.21e+03     0s
  21   7.00905748e+04  1.05098715e+11  5.15e+00 1.23e-05  8.36e+03     0s
  22   6.99805009e+04  1.11301372e+11  5.15e+00 4.04e-05  8.88e+03     0s
  23   7.00215564e+04  1.16401745e+11  5.15e+00 3.61e-05  9.33e+03     0s
  24   7.01440393e+04  1.31764059e+11  5.15e+00 1.44e-04  1.07e+04     0s
  25   7.02156560e+04  1.40572556e+11  5.15e+00 1.14e-04  1.18e+04     0s
  26   7.04706931e+04  1.52910598e+11  5.15e+00 4.97e-05  1.34e+04     0s
  27   7.06941142e+04  1.75644301e+11  5.15e+00 7.97e-05  1.62e+04     0s
  28   7.09695734e+04  2.04642001e+11  5.15e+00 1.43e-04  2.03e+04     0s
  29   7.10787862e+04  2.53705704e+11  5.15e+00 9.74e-05  2.71e+04     0s
  30   1.22738648e+07 -6.89774686e+06  1.85e+04 9.97e+02  9.99e+05     0s
  31   1.91848504e+05  4.80532357e+05  3.61e+02 1.91e+01  1.51e+03     0s
  32   8.07507451e+04  1.14767774e+05  3.63e+01 1.92e+00  8.85e+01     0s
  33   7.00420772e+04  7.74492637e+04  8.31e+00 4.57e-01  1.86e+01     0s
  34   6.88851261e+04  7.40173739e+04  5.30e+00 2.84e-01  1.66e+01     0s
  35   7.14824347e+04  8.32655661e+04  5.51e+00 3.88e-01  1.02e+02     0s
  36   7.05848911e+04  1.46032410e+05  5.53e+00 1.96e+00  3.15e+03     0s
  37*  7.05933788e+04  2.68904679e+07  3.20e-02 7.43e-02  4.56e-01     0s
  38*  7.05933720e+04  2.51434280e+10  3.20e-05 6.24e-05  4.57e-04     0s
  39*  7.05933775e+04  2.51355143e+13  3.20e-08 6.23e-08  4.57e-07     0s
  40*  7.01968515e+04  2.56852705e+13  1.59e-08 2.25e-08  2.78e-07     0s
  41*  6.99933383e+04  2.59042055e+13  1.07e-08 1.40e-08  2.09e-07     0s
  42*  7.01818075e+04  3.11437764e+13  3.70e-09 1.73e-09  7.33e-08     0s
  43*  6.59641629e+04  4.91528308e+13  2.21e-09 2.85e-09  2.71e-08     0s
  44*  6.80038302e+04  4.15713309e+13  1.59e-09 2.14e-09  2.34e-08     0s
  45*  6.21964980e+04  7.23496094e+13  1.21e-09 8.15e-10  8.09e-09     0s

Barrier performed 45 iterations in 0.48 seconds (0.73 work units)
Infeasible model

